1627673
0,53,12,46,3,19,64,44,26,16,57,8,1,47,62,15,58,27,49,35,14,7,67,34,50,38,61,36,52,43,13,9,17,56,32,51,21,30,42,6,37,66,63,33,45,54,25,65,10,5,40,29,24,28,59,22,48,18,4,39,55,31,41,2,20,60,23,11
